100
128
9
34
22
21
25
3
5
38
63
9
50
63
1
49
36
13
38
39
57
27
21
37
35
30
27
25
50
58
31
41
24
33
17
5
37
18
3
16
47
20
64
23
1
35
33
44
4
52
31
16
60
37
62
2
6
3
51
57
61
7
10
47
36
31
60
10
16
54
40
58
46
23
35
62
63
2
53
59
41
24
1
38
34
5
8
4
37
53
40
54
14
37
40
3
4
8
9
46
17
1